% seed = 5227297

mint = 32;
% maxt = 93;

nActs = 22;
dur = [0,5,4,8,2,1,2,3,6,7,8,4,5,6,4,3,10,10,2,2,1,0];

nSkills = 4;
sreq = [| 0,0,0,0,
	| 0,2,0,1,
	| 0,3,3,3,
	| 2,2,1,0,
	| 0,0,2,3,
	| 0,3,2,0,
	| 1,1,1,1,
	| 1,1,3,1,
	| 1,1,3,2,
	| 2,0,3,2,
	| 1,2,2,1,
	| 2,1,3,2,
	| 1,0,3,2,
	| 1,1,2,3,
	| 1,2,1,1,
	| 0,2,0,3,
	| 1,2,0,1,
	| 2,2,2,2,
	| 2,2,2,1,
	| 2,2,1,0,
	| 2,1,3,2,
	| 0,0,0,0, |];

nResources = 10;
mastery = [| false,false,true,false,
	| false,true,true,false,
	| false,true,false,true,
	| false,false,true,false,
	| false,true,false,false,
	| true,false,true,false,
	| false,true,true,true,
	| true,true,false,true,
	| false,false,true,false,
	| false,true,false,false, |];

nPrecs = 43;
pred = [1,1,1,2,2,2,3,3,3,4,4,4,5,5,6,6,6,7,7,7,8,8,8,9,9,10,11,12,13,13,13,14,14,14,15,15,15,16,17,18,19,20,21];
succ = [2,3,4,9,5,7,11,12,13,9,5,7,6,14,18,13,8,18,20,10,10,12,21,10,14,19,15,16,17,19,16,17,21,16,17,18,21,20,20,19,22,22,22];

nUnrels = 86;
unpred = [2,2,2,2,3,3,3,3,3,3,3,3,4,4,5,5,5,5,6,6,6,6,6,7,7,7,7,7,7,7,7,7,7,8,8,8,8,8,8,8,9,9,9,9,9,10,10,10,10,10,10,10,10,10,10,11,11,11,11,12,12,12,12,12,12,12,13,13,13,13,14,14,14,15,16,16,16,16,17,17,17,18,18,19,19,20];
unsucc = [3,4,11,15,4,5,6,7,8,9,10,14,11,15,7,9,11,15,7,9,11,14,15,8,9,11,12,13,14,15,16,17,21,9,11,13,14,15,17,18,11,12,13,15,18,11,12,13,14,15,16,17,18,20,21,12,13,14,16,13,14,15,17,18,19,21,14,15,18,21,15,18,19,16,17,18,19,21,18,19,21,20,21,20,21,21];

USEFUL_RES = [{},
	{2,3,5,7,8,10},
	{1,2,3,4,5,6,7,8,9,10},
	{1,2,3,4,5,6,7,8,9,10},
	{1,2,3,4,6,7,8,9},
	{1,2,3,4,5,6,7,8,9,10},
	{1,2,3,4,5,6,7,8,9,10},
	{1,2,3,4,5,6,7,8,9,10},
	{1,2,3,4,5,6,7,8,9,10},
	{1,2,3,4,6,7,8,9},
	{1,2,3,4,5,6,7,8,9,10},
	{1,2,3,4,5,6,7,8,9,10},
	{1,2,3,4,6,7,8,9},
	{1,2,3,4,5,6,7,8,9,10},
	{1,2,3,4,5,6,7,8,9,10},
	{2,3,5,7,8,10},
	{2,3,5,6,7,8,10},
	{1,2,3,4,5,6,7,8,9,10},
	{1,2,3,4,5,6,7,8,9,10},
	{1,2,3,4,5,6,7,8,9,10},
	{1,2,3,4,5,6,7,8,9,10},
	{}];

POTENTIAL_ACT = [{3,4,5,6,7,8,9,10,11,12,13,14,15,18,19,20,21},
	{2,3,4,5,6,7,8,9,10,11,12,13,14,15,16,17,18,19,20,21},
	{2,3,4,5,6,7,8,9,10,11,12,13,14,15,16,17,18,19,20,21},
	{3,4,5,6,7,8,9,10,11,12,13,14,15,18,19,20,21},
	{2,3,4,6,7,8,9,11,12,14,15,16,17,18,19,20,21},
	{3,4,5,6,7,8,9,10,11,12,13,14,15,17,18,19,20,21},
	{2,3,4,5,6,7,8,9,10,11,12,13,14,15,16,17,18,19,20,21},
	{2,3,4,5,6,7,8,9,10,11,12,13,14,15,16,17,18,19,20,21},
	{3,4,5,6,7,8,9,10,11,12,13,14,15,18,19,20,21},
	{2,3,4,6,7,8,9,11,12,14,15,16,17,18,19,20,21}];
